80 254655
22 55 21 14 32 4 19 80 67 35 44 37 28 76 18 54 69 2 56 23 27 10 75 70 8 66 17 77 39 47 62 48 6 50 43 57 31 49 59 71 65 7 45 64 33 79 20 52 12 58 1 24 5 3 16 25 78 53 36 15 34 51 73 60 68 42 9 74 63 30 29 61 13 26 72 11 41 46 40 38 
